NAME : rat99.tsp
COMMENT : Optimal tour for rat99.tsp
TYPE : TOUR
DIMENSION : 99
Total Length: 1311.6166968087311
TOUR_SECTION
1
2
3
4
5
6
7
8
9
18
17
27
35
36
44
34
43
42
33
32
41
50
60
51
52
53
45
54
63
72
81
80
89
90
99
98
97
96
95
86
87
88
79
78
77
76
85
84
94
93
92
91
83
82
73
74
64
65
66
75
67
68
69
70
71
62
61
59
58
49
57
56
55
46
47
38
48
39
40
31
21
30
29
37
28
19
20
22
23
24
26
25
16
15
14
13
12
11
10
-1
EOF
